p cnf 51 178
4 -2 0
4 -3 0
2 3 -4 0
-1 -4 -5 0
1 4 -5 0
-1 4 5 0
1 -4 5 0
7 5 0
7 6 0
-5 -6 -7 0
10 -8 0
10 -9 0
8 9 -10 0
-11 -10 0
-11 -8 0
10 8 11 0
-2 -12 0
2 -12 0
-13 11 0
-13 -12 0
-11 12 13 0
-14 -1 0
-14 13 0
1 -13 14 0
15 -7 0
15 -14 0
7 14 -15 0
10 -9 -16 0
-10 9 -16 0
10 9 16 0
-10 -9 16 0
-18 -16 0
-18 17 0
16 -17 18 0
19 -10 0
19 -10 0
10 -19 0
-20 -18 0
-20 -19 0
18 19 20 0
11 19 -21 0
-11 -19 -21 0
11 -19 21 0
-11 19 21 0
-22 -20 0
-22 21 0
20 -21 22 0
9 -23 -24 0
-9 23 -24 0
9 23 24 0
-9 -23 24 0
-25 -11 0
-25 17 0
11 -17 25 0
-1 26 -27 0
1 -26 -27 0
-1 -26 27 0
1 26 27 0
-25 27 -28 0
25 -27 -28 0
-25 -27 28 0
25 27 28 0
-24 28 -29 0
24 -28 -29 0
-24 -28 29 0
24 28 29 0
22 29 -30 0
-22 -29 -30 0
22 -29 30 0
-22 29 30 0
-8 19 -31 0
8 -19 -31 0
-8 -19 31 0
8 19 31 0
-32 -11 0
-32 31 0
11 -31 32 0
-32 -3 -33 0
32 3 -33 0
-32 3 33 0
32 -3 33 0
8 3 -34 0
-8 -3 -34 0
8 -3 34 0
-8 3 34 0
-35 10 0
-35 -34 0
-10 34 35 0
36 9 0
36 -35 0
-9 35 -36 0
-37 -12 0
-37 17 0
12 -17 37 0
38 -36 0
38 -37 0
36 37 -38 0
33 38 -39 0
-33 -38 -39 0
33 -38 39 0
-33 38 39 0
-40 26 0
-40 17 0
-26 -17 40 0
41 26 0
41 3 0
-26 -3 -41 0
-42 40 0
-42 41 0
-40 -41 42 0
-44 -42 0
-44 43 0
42 -43 44 0
45 -39 0
45 -44 0
39 44 -45 0
2 10 -46 0
-2 -10 -46 0
2 -10 46 0
-2 10 46 0
-47 -1 0
-47 41 0
1 -41 47 0
48 -46 0
48 47 0
46 -47 -48 0
49 -45 0
49 -48 0
45 48 -49 0
-50 30 0
-50 -49 0
-30 49 50 0
15 50 -51 0
-15 -50 -51 0
15 -50 51 0
-15 50 51 0
4 -33 42 0
10 -43 3 0
12 22 -24 31 1 0
46 21 23 -49 10 0
27 7 -18 0
-9 5 0
45 2 0
-32 -34 9 17 37 0
23 43 -37 -8 0
-20 21 26 -19 -48 10 0
-38 -49 19 34 47 0
-19 -38 -41 -37 0
-51 47 26 -24 36 -17 0
51 -46 -23 6 -16 0
-24 41 -50 0
25 28 6 43 0
-28 -24 3 -41 0
-2 -18 -12 36 0
45 8 -47 3 -24 34 0
-37 -29 0
-36 -48 0
-42 -23 -30 -13 47 0
-27 -50 -35 0
8 -45 -48 -31 5 0
-35 7 18 51 0
25 35 20 47 -41 0
-40 -51 32 0
47 -43 33 40 0
1 -19 34 10 -35 50 0
-3 -37 -40 0
-14 13 -31 0
33 -30 39 -37 -49 0
22 -1 0
-17 40 0
-18 -49 0
21 -51 37 0
-51 -5 -2 -28 0
17 -51 -16 -9 0
-2 -37 -16 0
49 -33 35 50 7 14 0
-5 -30 10 11 0
51 0
